M+/Instances/S1-10-M+/S1-5-10-1-l-M+.txt
     100      10    0.05
       1       2       1       3       1       3       3       1       2       1      14      16       1       0       1       6      12      13      12       7       5
       1       3       3       2       3       3       1       1       3       1      13      12      11      11      12       0       0      16       8       5       6
       2       3       3       1       2       2       2       2       2       2      13       1      15       2       6      12      12      10       6       9       6
       2       3       2       1       1       3       1       1       3       3       0      13      11      12       9       5       6       3       9      10       5
       1       1       3       3       2       1       3       2       2       1       9       4      14      10      15       3      11      13      14       2       6
       3       3       1       2       2       3       3       1       2       3       6       1       8      16      11      15       7       9       4      10       6
       3       2       2       3       2       2       2       3       2       3       5       4       0       6       5      13      12      12      11      14       6
       2       3       3       1       2       2       1       1       2       1      10      10       2       5      10      13       0       3       1       0       4
       1       1       2       3       2       2       3       2       2       1      10      13       5      10      16      16       6      10       6       4       7
       1       2       1       2       3       3       3       1       3       2      14      10       0      10       0       7       7      15       5       2       6
       1       2       2       1       3       1       2       1       1       1      13       7       7       5      14       9       4      11       0      13       4
       3       3       2       2       2       2       2       3       3       1      10       5       2       0       4      12       5       5      14       4       5
       3       1       3       3       3       2       3       1       2       3       9       9      10       8       5       7      16       3       2      12       5
       1       1       2       1       2       2       1       3       2       3       5      11       0       2      13      16       4       9      12      11       5
       3       1       3       2       1       1       1       1       2       3       7       6       6       1      16       3      13      10      16       0       6
       1       1       2       2       1       3       3       2       1       3       2       0      11       1      14       2       0       6       4       7       6
       3       3       3       3       2       1       3       3       1       1       5      16      14       9      14       5       4      11      15      10       5
       2       3       3       1       2       3       2       2       1       2       9       2       4      15       6       2       5       7       9       2       7
       2       3       2       1       3       3       3       2       3       2      11      16      11       5      14      12       5       8       1       4       7
       2       3       2       3       2       3       3       3       2       2       2      15      16      14       9       1       8       2       0      15       6
       2       2       1       3       2       2       1       2       1       3       6      11      16      15       7       9       7      13       2       9       6
       1       2       2       2       2       3       1       3       2       2      12      16       7      12      13      11       9      15      15      16       7
       2       3       1       2       3       2       1       1       1       1      13       2       3       3      14       5       1       0      14      14       5
       2       2       2       1       1       2       2       2       1       3       2       4      11      12       5       3       8      12      15       3       5
       1       3       3       1       2       2       3       1       2       2       9       4      15      15       2       6      12      13       1      15       4
       2       1       2       2       2       1       1       2       2       1       4       8       0       1       4      15       4      15       7      12       5
       2       2       2       3       1       3       3       2       2       2      16       9      14       9       0       1       2      13      15      16       5
       3       2       2       3       3       3       3       1       2       3       8       2      16       7      16      10      13      16       6      15       7
       1       2       3       2       3       2       2       3       3       1       7      11      14       0      13       3       5       3       3       0       5
       3       2       2       2       2       1       1       1       1       3      14       7      11       1       0      12      11      16      12       9       5
       1       1       1       2       1       2       3       2       3       3      14       8       1       2       2       7       1      12       7       4       4
       3       2       2       2       1       3       1       1       1       3       2       9      15       1      12       4      10       7       1       8       6
       2       3       1       2       3       3       2       2       3       1       1      14       2       7      10       9      16       5      11       6       6
       3       1       2       1       3       3       3       1       2       2       6       6      12      10       3       2      16       5       0       9       5
       3       1       1       3       2       3       1       1       3       1      15      16       7       5       6      14      11       6       2      11       5
       2       2       2       1       2       2       2       1       2       1       4       1       6       7       7      14      13       1       5       9       4
       3       2       2       2       1       1       2       2       2       2       7      12      16       7       1       8       1      13       4       5       5
       1       1       2       2       3       2       2       3       3       2       4       5       9       2       8      15      15       9       3       6       4
       2       2       1       2       1       1       2       2       3       3       5       7       7      16       0      12       0      13       2       7       7
       1       3       2       2       3       1       1       3       2       3      11      14      13       7      14      12       1      16       2       9       5
       3       2       1       2       2       3       1       2       1       1       8      15       2      15      10       3       6      11      16       0       6
       2       2       3       3       1       2       2       3       3       2      10       7       8      15       7      13       8       8      12       9       5
       3       2       3       2       1       1       1       1       2       2      13      13       7       2      14       4       7       1       7      13       6
       2       1       1       2       2       3       1       2       1       1      15      16       9      11      13       8       9       1      12       7       5
       2       2       1       3       1       3       2       3       1       1       5      16       8       8      12      15       8      11       0       9       7
       2       1       2       2       3       2       3       1       3       2       6       3       1       8      12       8       5       5      10       9       7
       3       1       3       3       3       3       3       3       1       3      15      12       4       2      13      13       2       4      10      12       4
       1       1       3       2       2       3       3       2       1       2       7      14       8       4       1      13      13       0      14      16       5
       3       1       3       3       2       2       3       3       2       2      13       6       5       1       2       3      14      15       5       6       7
       1       2       2       1       1       3       1       2       1       2       6      16       1       7       6      11      11      13      16       3       5
       2       2       2       2       3       2       3       3       3       3       5       4      12      12      12       3      12       2      10       1       5
       3       3       2       2       1       1       3       2       1       2      13       2       9       9       4      12       7      13       1       2       4
       3       2       2       2       3       2       1       1       3       2      12      11       8      16       6       4       2      15      13      15       5
       1       2       2       2       3       1       3       3       3       2       5      12       6      16      15       2       2       5       5      10       4
       1       2       3       2       2       2       1       1       1       3       9       2       3      13       7      13      15       1       6      12       7
       1       1       1       3       2       1       1       1       2       1       4       8       4       4      11       3       7       9      14       4       4
       1       3       3       1       3       3       3       3       3       2       4       7       0       0      15      16      10       3      13       7       5
       1       2       2       3       1       1       1       1       1       2      13       7      11      14       9      15      15       1      10       5       7
       3       1       1       2       3       1       3       1       3       1       5       9       5      16      12       4      12      15       0       8       6
       2       2       2       1       3       3       2       3       3       2      16       5       8       1       2      10      13      12       3       8       6
       1       2       2       1       3       2       2       1       2       1      11      14       9       1      10       2       1       5       5      10       4
       2       3       3       3       3       1       1       3       1       1      12      13      14       1      16      10       9       9      12       7       7
       3       3       2       2       1       2       1       3       3       3       7       3      15      10       7       9      16      12      11      10       4
       2       2       1       3       1       1       2       2       3       2      10       6       5       9       4       5      10       4      15       9       5
       1       1       2       1       2       1       2       3       1       1      11       7      12      10      13       0       8       1       9       0       5
       3       1       2       3       1       1       1       1       1       2      13       9       8       8      11       8       2       9      10      10       4
       2       1       2       1       1       3       2       2       1       3       9       8       9      14       7      13       9       5      11      13       7
       3       1       1       2       3       3       2       2       3       2      10       2      12      15      15      12      12       0      10       5       6
       2       2       1       1       2       2       3       2       3       2      16       9       7       1       8      15      13      11       3      14       7
       3       2       2       3       2       1       3       2       3       2      16      12       5       2       7      14       3       3       3      10       7
       3       3       1       1       3       2       1       3       3       1      13       7      10       2       4      15       9      15       3      12       4
       1       2       3       3       2       2       2       1       2       3      10      11       2       5      14       5      10      13       0       0       5
       2       3       2       2       3       2       2       1       2       2       5       7       8      14      16      11      12       8       3       1       4
       3       3       2       1       2       2       1       3       1       2       5       2       8      14       5      13      13      16      12       5       5
       3       3       3       1       2       3       2       1       2       3       5       0       9       9       3       2       5       7       7       9       7
       1       2       2       2       1       1       1       1       3       3       8       7       6      10       6       8       7      13       2      16       6
       2       2       3       3       3       1       1       3       1       3       2      12       6       2      13       4      15      14       9      15       5
       2       2       1       2       1       1       2       1       2       1       5      12       7      13       0       2      15      10       4       2       7
       1       3       1       3       1       1       3       1       3       2       0       8       9       2       1       3       9      10      16       5       4
       2       2       3       1       3       2       3       1       2       2      11       9       1      10      16       3      11       8      10       1       6
       2       3       1       2       3       3       1       2       3       2       2       8      15       7      14      11      10      14      13       4       4
       3       2       3       2       2       3       2       2       1       1       6       3       4      12       5       4      10      11       7       9       7
       1       3       2       2       2       3       2       3       2       3       2       4       1       3      12      12       2       9       2       8       5
       2       2       1       2       1       2       1       3       1       1       5      13      12       2       2       0      12      14       8       9       7
       1       2       1       3       2       1       1       3       3       2      16      15       9      13       0      12      10      14       9       3       7
       3       3       2       2       2       3       3       2       2       2       2       7      11      11       3       6      10       6       3       0       6
       2       3       1       2       3       1       2       3       1       2       7       9       8       3       6      11       5      11      11       1       4
       3       1       1       1       2       2       2       1       1       2      10       8       0      10      11       1       6      15      12       4       7
       2       3       1       1       2       2       1       1       2       3       2      11      10      11       8       8      16       7       6       0       6
       3       3       3       2       1       3       2       2       1       1       7       5       6      15      13      16       3      15       5       4       7
       1       2       3       2       3       3       1       2       2       3      15       7      11       9       4       6       9      11       3       9       7
       2       2       1       3       1       1       1       2       1       1       6       5       6      16       9       0      12       0      11       6       5
       3       1       2       1       3       1       1       3       2       2      14      11       2       2       7      12      12       4      14      12       4
       2       3       2       3       1       2       2       1       2       2      14       7      11      12       6       9       1       6       2      13       4
       1       3       1       2       2       2       2       1       3       3      11       6       5       4      15       5       0      12      10      13       5
       1       3       1       1       1       3       2       3       1       1      15      16      13       9       4      13      15       9      11      14       6
       3       1       3       2       3       3       2       2       1       3       1       7       5       1      11       4      15       2      15      11       5
       1       1       1       3       2       3       2       2       1       1      11       0       3       1       1       2      16      15      10       5       6
       3       2       1       2       3       2       2       1       3       1      11       5      15       4       4      11       8       8       6      13       7
       1       1       1       1       3       1       2       3       2       2      14      16      11      12       9       8      10      15       6       8       6
      63      90      92      74      85      96      55      92      72      89
     126     205     178     148     175     198     106     195     142     176
     203     327     281     240     484     285     216     554     315     289