M+/results-log/S1-10-M+/S1-5-10-1-l-M+.log
CPXPARAM_Read_DataCheck                          1
Found incumbent of value 0.000000 after 0.00 sec. (0.03 ticks)
Tried aggregator 1 time.
MIP Presolve modified 2 coefficients.
Reduced MIP has 131 rows, 1010 columns, and 5040 nonzeros.
Reduced MIP has 1010 binaries, 0 generals, 0 SOSs, and 0 indicators.
Presolve time = 0.00 sec. (1.96 ticks)
Probing time = 0.02 sec. (1.41 ticks)
Tried aggregator 1 time.
Reduced MIP has 131 rows, 1010 columns, and 5040 nonzeros.
Reduced MIP has 1010 binaries, 0 generals, 0 SOSs, and 0 indicators.
Presolve time = 0.00 sec. (2.21 ticks)
Probing time = 0.00 sec. (1.41 ticks)
Clique table members: 1445.
MIP emphasis: balance optimality and feasibility.
MIP search method: dynamic search.
Parallel mode: deterministic, using up to 4 threads.
Root relaxation solution time = 0.00 sec. (2.68 ticks)

        Nodes                                         Cuts/
   Node  Left     Objective  IInf  Best Integer    Best Bound    ItCnt     Gap

*     0+    0                            0.0000     6348.0000              --- 
      0     0     3229.4426    13        0.0000     3229.4426      270     --- 
      0     0     2570.4304   121        0.0000     Cuts: 143      813     --- 
      0     0     2326.5032   275        0.0000     Cuts: 140     1275     --- 
*     0+    0                         2167.0000     2326.5032             7.36%
      0     0        cutoff           2167.0000     2167.0000     1883    0.00%
Elapsed time = 0.19 sec. (141.61 ticks, tree = 0.01 MB, solutions = 2)

GUB cover cuts applied:  2
Clique cuts applied:  287
Cover cuts applied:  10
Mixed integer rounding cuts applied:  57
Zero-half cuts applied:  12

Root node processing (before b&c):
  Real time             =    0.19 sec. (141.69 ticks)
Parallel b&c, 4 threads:
  Real time             =    0.00 sec. (0.00 ticks)
  Sync time (average)   =    0.00 sec.
  Wait time (average)   =    0.00 sec.
                          ------------
Total (root+branch&cut) =    0.19 sec. (141.69 ticks)
